CMD:
./solvers/bin/cadical --plain --no-reduce -t 1600 ./data/cnfs//visarbiter/visarbiter.58.cnf

c --- [ banner ] -------------------------------------------------------------
c 
c CaDiCaL SAT Solver
c Copyright (c) 2016-2024
c A. Biere, M. Fleury, N. Froleyks, K. Fazekas, F. Pollitt, T. Faller
c JKU Linz, University of Freiburg, TU Wien
c 
c Version 2.1.3 5296d3d2a9bf48c154ab2acb5e44625776d821bf
c g++ (Gentoo 12.3.1_p20230526 p2) 12.3.1 20230526 -Wall -Wextra -O3 -DNDEBUG
c Sat Aug 9 07:26:21 PDT 2025 Linux cedar2.int.cedar.computecanada.ca 5.14.0-362.24.2.el9_3.x86_64 x86_64
c 
c --- [ limit ] --------------------------------------------------------------
c 
c setting time limit to 1600 seconds real time (due to '-t 1600')
c 
c --- [ parsing input ] ------------------------------------------------------
c 
c reading DIMACS file from './data/cnfs//visarbiter/visarbiter.58.cnf'
c opening file to read './data/cnfs//visarbiter/visarbiter.58.cnf'
c found 'p cnf 26160 77726' header
c parsed 77726 clauses in 0.01 seconds process time
c 
c --- [ options ] ------------------------------------------------------------
c 
c   --compact=false                (different from default 'true')
c   --decompose=false              (different from default 'true')
c   --deduplicate=false            (different from default 'true')
c   --elim=false                   (different from default 'true')
c   --probe=false                  (different from default 'true')
c   --reduce=false                 (different from default 'true')
c   --subsume=false                (different from default 'true')
c   --ternary=false                (different from default 'true')
c   --transred=false               (different from default 'true')
c   --vivify=false                 (different from default 'true')
c 
c --- [ solving ] ------------------------------------------------------------
c 
c time measured in process time since initialization
c 
c  seconds  reductions  redundant  irredundant
c         MB    restarts       trail      variables
c          level   conflicts       glue        remaining
c 
c *  0.01 16  0 0   0    0    0  0% 0 76157 24968 95%
c {  0.01 16  0 0   0    0    0  0% 0 76157 24968 95%
c }  0.03 16 122 0  20 1000  882 35% 2 76157 24968 95%
c [  0.03 16  0 0  20 1000  882  0% 0 76157 24968 95%
c O  0.03 16 145 0  20 1002  884 48% 2 76157 24968 95%
c ]  0.09 17 162 0  21 3003 2707 63% 5 76157 24968 95%
c {  0.09 17 122 0  21 3003 2707 35% 2 76157 24968 95%
c F  0.09 17 122 0  21 3004 2708 35% 2 76157 24968 95%
c i  0.15 17 62 0 412 5157 4752 22% 3 76157 24967 95%
c #  0.19 17 56 0 578 6005 5528 22% 3 76157 24967 95%
c }  0.22 17 55 0 700 7003 6469 23% 3 76157 24967 95%
c [  0.22 17 162 0 700 7003 6469 63% 5 76157 24967 95%
c i  0.28 18 121 0 701 8561 7862 48% 5 76157 24966 95%
c i  0.33 18 111 0 702 9552 8769 43% 8 76157 24955 95%
c I  0.34 18 110 0 702 10007 9184 43% 7 76157 24955 95%
c ]  0.59 19 97 0 705 15005 13789 41% 6 76157 24955 95%
c {  0.59 19 55 0 705 15005 13789 23% 3 76157 24955 95%
c B  0.59 19 55 0 707 15010 13794 23% 3 76157 24955 95%
c i  0.73 20 45 0 1207 17501 16106 21% 3 76157 24954 95%
c i  0.84 20 42 0 1488 19515 17960 23% 3 76157 24943 95%
c 
c  seconds  reductions     redundant  irredundant
c         MB    restarts          trail      variables
c          level     conflicts        glue        remaining
c 
c W  0.95 20 40 0 1701 21011 19339 23% 4 74264 24943 95%
c i  1.22 21 35 0 2183 24980 22975 23% 4 74264 24942 95%
c i  1.43 21 33 0 2547 27743 25484 23% 4 74264 24941 95%
c F  1.45 21 33 0 2599 28012 25735 23% 4 74264 24941 95%
c }  1.70 22 31 0 3021 31008 28497 23% 4 74264 24941 95%
c [  1.70 22 97 0 3021 31008 28497 41% 6 74264 24941 95%
c i  1.80 22 87 0 3021 32543 29833 38% 6 74264 24904 95%
c i  1.97 22 73 0 3023 35026 32060 35% 6 74264 24800 95%
c i  1.97 22 73 0 3023 35087 32098 35% 6 74264 24765 95%
c i  1.97 22 73 0 3023 35091 32100 35% 6 74264 24239 93%
c ]  1.97 22 73 0 3023 35095 32101 35% 6 74264 24237 93%
c 0  1.97 22 73 0 3023 35095 32101 35% 6 74264 24237 93%
c 
c --- [ result ] -------------------------------------------------------------
c 
s UNSATISFIABLE
c 
c --- [ run-time profiling ] -------------------------------------------------
c 
c process time taken by individual solving procedures
c (percentage relative to process time for solving)
c 
c         1.96   99.99% search
c         1.24   63.16% unstable
c         0.70   35.88% stable
c         0.02    0.90% walk
c         0.01    0.60% parse
c         0.00    0.04% lucky
c         0.00    0.00% simplify
c   =================================
c         1.96   99.37% solve
c 
c last line shows process time for solving
c (percentage relative to total process time)
c 
c --- [ statistics ] ---------------------------------------------------------
c 
c chronological:             13640        38.87 %  of conflicts
c conflicts:                 35095     17903.10    per second
c decisions:                111749     57006.80    per second
c fixed:                      1923         7.35 %  of all variables
c learned:                   33866        96.50 %  per conflict
c learned_lits:             571530       100.00 %  learned literals
c minimized:                     0         0.00 %  learned literals
c shrunken:                  60771        10.63 %  learned literals
c minishrunken:              97431        17.05 %  learned literals
c otfs:                        325         0.93 %  of conflict
c propagations:           25968595        13.25 M  per second
c rephased:                      7      5013.57    interval
c restarts:                   3023        11.61    interval
c stabilizing:                   3        40.15 %  of conflicts
c subsumed:                   1755         1.60 %  of all clauses
c strengthened:                323         0.29 %  of all clauses
c walked:                        1     35095.00    interval
c 
c seconds are measured in process time for solving
c 
c --- [ resources ] ----------------------------------------------------------
c 
c total process time since initialization:         1.97    seconds
c total real time since initialization:            1.98    seconds
c maximum resident set size of process:           30.81    MB
c 
c --- [ shutting down ] ------------------------------------------------------
c 
c exit 20
